41
75
52	3
51	1
50	4
49	3
48	3
47	2
46	2
45	2
44	4
43	4
42	2
40	1
39	2
38	2
37	8
36	4
34	4
33	1
32	2
30	2
29	1
28	4
26	2
25	3
24	1
23	2
22	1
21	1
20	3
19	3
18	2
17	3
16	3
15	2
14	1
13	1
12	4
11	1
10	1
8	1
7	4
